results/real/sos1/mar_4_599.in
Version identifier: 22.1.0.0 | 2022-03-09 | 1a383f8ce
CPXPARAM_Threads                                 1
CPXPARAM_MIP_Strategy_VariableSelect             3
CPXPARAM_TimeLimit                               599.999909667
1 of 1 MIP starts provided solutions.
MIP start 'm1' defined initial solution with objective 376.0000.
Tried aggregator 2 times.
MIP Presolve eliminated 643 rows and 600 columns.
MIP Presolve added 40 rows and 10 columns.
MIP Presolve modified 30 coefficients.
Aggregator did 10 substitutions.
Reduced MIP has 3593 rows, 7188 columns, and 240106 nonzeros.
Reduced MIP has 7188 binaries, 0 generals, 0 SOSs, and 0 indicators.
Presolve time = 0.34 sec. (444.52 ticks)
Probing time = 0.02 sec. (24.24 ticks)
Tried aggregator 1 time.
Detecting symmetries...
MIP Presolve modified 10 coefficients.
Reduced MIP has 3593 rows, 7188 columns, and 240218 nonzeros.
Reduced MIP has 7188 binaries, 0 generals, 0 SOSs, and 0 indicators.
Presolve time = 0.22 sec. (353.25 ticks)
Probing time = 0.02 sec. (24.24 ticks)
Clique table members: 2390.
MIP emphasis: balance optimality and feasibility.
MIP search method: dynamic search.
Parallel mode: none, using 1 thread.
Root relaxation solution time = 0.18 sec. (215.20 ticks)

        Nodes                                         Cuts/
   Node  Left     Objective  IInf  Best Integer    Best Bound    ItCnt     Gap

*     0+    0                          376.0000   179700.0000              --- 
      0     0      599.0000   457      376.0000      599.0000     1740   59.31%
*     0+    0                          599.0000      599.0000             0.00%
      0     0        cutoff            599.0000      599.0000     1740    0.00%
Elapsed time = 1.38 sec. (1709.10 ticks, tree = 0.01 MB, solutions = 2)

Root node processing (before b&c):
  Real time             =    1.39 sec. (1709.41 ticks)
Sequential b&c:
  Real time             =    0.00 sec. (0.00 ticks)
                          ------------
Total (root+branch&cut) =    1.39 sec. (1709.41 ticks)
Primal:	599
Dual:	599
Status:	Optimal
Time:	1.44
Sequence:
	9
	9
	7
	9
	0
	5
	9
	5
	9
	5
	0
	7
	9
	5
	2
	5
	9
	5
	0
	4
	7
	9
	0
	4
	5
	0
	7
	9
	8
	5
	9
	9
	5
	9
	8
	7
	9
	0
	4
	5
	0
	9
	5
	9
	7
	4
	1
	9
	9
	9
	7
	9
	5
	8
	9
	4
	4
	0
	5
	9
	7
	0
	10
	4
	0
	9
	7
	9
	9
	4
	1
	4
	0
	7
	9
	0
	9
	5
	9
	4
	7
	9
	9
	9
	5
	9
	7
	9
	9
	9
	9
	4
	7
	0
	5
	9
	9
	5
	9
	7
	9
	4
	9
	0
	4
	7
	9
	1
	0
	4
	5
	9
	7
	9
	9
	0
	9
	9
	7
	9
	9
	4
	9
	9
	7
	9
	0
	9
	4
	5
	9
	9
	9
	7
	9
	9
	4
	5
	9
	2
	1
	9
	4
	7
	9
	9
	9
	9
	9
	7
	0
	5
	9
	5
	0
	7
	4
	0
	4
	4
	0
	7
	4
	1
	4
	1
	4
	0
	7
	9
	4
	4
	0
	4
	7
	0
	1
	4
	5
	0
	5
	4
	0
	7
	4
	0
	5
	4
	1
	0
	7
	4
	0
	1
	4
	4
	1
	4
	7
	0
	1
	9
	1
	4
	1
	8
	1
	4
	7
	0
	1
	4
	5
	0
	7
	4
	1
	4
	5
	0
	7
	4
	1
	4
	4
	0
	7
	9
	0
	9
	1
	9
	0
	7
	9
	5
	9
	5
	0
	5
	9
	0
	5
	9
	8
	9
	9
	7
	9
	0
	9
	1
	0
	1
	9
	7
	9
	1
	9
	1
	9
	7
	0
	4
	1
	4
	1
	4
	7
	0
	4
	4
	0
	4
	7
	0
	4
	4
	0
	4
	4
	0
	7
	9
	10
	0
	9
	5
	9
	7
	0
	1
	9
	1
	0
	1
	4
	0
	4
	7
	9
	4
	1
	0
	1
	9
	7
	0
	1
	9
	1
	9
	7
	9
	1
	0
	1
	4
	7
	9
	10
	9
	0
	9
	7
	9
	0
	5
	4
	0
	3
	9
	0
	9
	4
	9
	7
	9
	9
	0
	9
	9
	7
	4
	1
	9
	5
	9
	7
	8
	9
	10
	0
	4
	7
	9
	4
	5
	0
	5
	9
	5
	4
	1
	8
	9
	1
	4
	7
	0
	9
	5
	9
	5
	9
	4
	5
	9
	5
	9
	7
	9
	5
	9
	5
	9
	1
	8
	7
	9
	4
	4
	10
	0
	9
	7
	0
	5
	9
	1
	0
	5
	4
	10
	0
	7
	4
	0
	5
	9
	0
	5
	4
	0
	7
	9
	0
	5
	9
	0
	4
	7
	0
	9
	1
	0
	4
	5
	9
	7
	0
	5
	9
	10
	0
	7
	9
	0
	1
	9
	0
	9
	7
	0
	5
	9
	0
	9
	7
	9
	0
	1
	9
	9
	7
	4
	9
	5
	4
	9
	9
	7
	4
	0
	9
	9
	0
	9
	11
	9
	1
	9
	4
	0
	7
	9
	5
	0
	5
	9
	7
	9
	9
	9
	9
	9
	7
	0
	1
	9
	5
	9
	7
	9
	5
	2
	9
	1
	9
	5
	9
	0
	5
	9
	1
	9
	7
	9
	1
	8
	1
	4
	7
	2
	9
	4
	9
	9
	7
	9
	5
	4
	9
	9
	7
	0
	4
	5
	0
	9
	7
	9
	1
	4
	10
	9
	7
	9
	0
	9
	9
	9
	7
	0
	5
	9
	5
	0
	5
	9
	0
	5
	9
	7
	9
	4
	5
	0
	4
	5
	9
	4
	7
	9
	4
	5
	0
	5
	9
	5
	0
	7
	4
	9
	5
	9
	5
	4
	0
	5
	4
	11
	0
	5
	9
	5
	0
	4
	5
	0
	5
	9
	7
	0
	9
	5
	0
	4
	11
